%%% Plate for the paper
%% It produces 1 plate with 10 positive, 10 negative controls
%%
%% 2021/Sep/09: it takes about ??

num_rows = 16; %% height
num_cols = 24; %% width

vertical_cell_lines	 = 1;
horizontal_cell_lines = 1;

allow_empty_wells = false;
size_empty_edge = 1;

% New and used!
concentrations_on_different_rows = true;
concentrations_on_different_columns = true;

% New and unused! (Restriction: replicates_on_different_plates /\ replicates_on_same_plate == false)
replicates_on_different_plates = true;
replicates_on_same_plate = false;

%%% Compounds %%%
compounds = 288; %% number of drugs/compounds
compound_concentrations	 = [ 1 | i in 1..compounds];
compound_replicates	 = [ 1 | i in 1..compounds];

compound_names = ["\(i)"| i in 1..compounds];
compound_concentration_names = array2d(1..compounds,1..1,[""| i in 1..compounds]);


compound_concentration_indicators = [""];
 


%%% Combinations %%%
combinations = 0;
combination_concentrations = 0;
combination_names = [];
combination_concentration_names = [];


%% Controls %%
num_controls = 2;
control_concentrations = [1,1];

control_replicates = [10,10];
control_concentration_names = [|"1"|"1"|];

control_names = ["[Pos]","[DMSO]"];

 